out/bwp_7_6_1_lp.out
2
0 0    0 0
1 0    1 0
2 0    2 0
6 0    6 0
6 1    6 1
4 0    5 1
