out/bwp_7_6_1_lp.log
Tried aggregator 2 times.
MIP Presolve eliminated 12 rows and 7 columns.
MIP Presolve modified 90 coefficients.
Aggregator did 90 substitutions.
Reduced MIP has 316 rows, 283 columns, and 742 nonzeros.
Reduced MIP has 180 binaries, 13 generals, 0 SOSs, and 0 indicators.
Presolve time = 0.00 sec. (0.68 ticks)
Found incumbent of value 7.000000 after 0.00 sec. (1.14 ticks)
Probing fixed 30 vars, tightened 50 bounds.
Probing time = 0.00 sec. (1.12 ticks)
Tried aggregator 3 times.
MIP Presolve eliminated 46 rows and 46 columns.
Aggregator did 94 substitutions.
Reduced MIP has 176 rows, 143 columns, and 452 nonzeros.
Reduced MIP has 110 binaries, 33 generals, 0 SOSs, and 0 indicators.
Presolve time = 0.00 sec. (0.78 ticks)
Probing time = 0.00 sec. (0.30 ticks)
Tried aggregator 1 time.
Reduced MIP has 176 rows, 143 columns, and 452 nonzeros.
Reduced MIP has 110 binaries, 33 generals, 0 SOSs, and 0 indicators.
Presolve time = 0.00 sec. (0.22 ticks)
Probing time = 0.00 sec. (0.30 ticks)
Clique table members: 80.
MIP emphasis: balance optimality and feasibility.
MIP search method: dynamic search.
Parallel mode: deterministic, using up to 4 threads.
Root relaxation solution time = 0.00 sec. (0.21 ticks)

        Nodes                                         Cuts/
   Node  Left     Objective  IInf  Best Integer    Best Bound    ItCnt     Gap

*     0+    0                            7.0000        2.0000       40   71.43%
      0     0        2.0000    60        7.0000        2.0000       40   71.43%
      0     0        2.0000    30        7.0000      Cuts: 24       61   71.43%
      0     0        2.0000    61        7.0000      Cuts: 46      110   71.43%
*     0+    0                            2.0000        2.0000      110    0.00%
      0     0        cutoff              2.0000        2.0000      110    0.00%
Elapsed time = 0.05 sec. (12.40 ticks, tree = 0.00 MB, solutions = 2)

Clique cuts applied:  1
Implied bound cuts applied:  7
Zero-half cuts applied:  4
Gomory fractional cuts applied:  14

Root node processing (before b&c):
  Real time             =    0.05 sec. (12.41 ticks)
Parallel b&c, 4 threads:
  Real time             =    0.00 sec. (0.00 ticks)
  Sync time (average)   =    0.00 sec.
  Wait time (average)   =    0.00 sec.
                          ------------
Total (root+branch&cut) =    0.05 sec. (12.41 ticks)
